PARAMETER_FILE = even/LKH_uncomplete_graph/x10/nei/par/random96.par
PROBLEM_FILE = even/LKH_uncomplete_graph/x10/nei/mat/random96.tsp
Successes/Runs = 0/10
Cost.min = 760, Cost.avg = 760.00, Cost.max = 760
Gap.min = 0.0000%, Gap.avg = 0.0000%, Gap.max = 0.0000%
Trials.min = 1000, Trials.avg = 1000.0, Trials.max = 1000
Time.min = 0.33 sec., Time.avg = 0.39 sec., Time.max = 0.47 sec.
Time.total = 4.01 sec.
请按任意键继续. . . 
